NAME F-JSSP-SDST
ROWS
 N  OBJ
 E  c0      
 E  c1      
 E  c2      
 E  c3      
 E  c4      
 E  c5      
 E  c6      
 E  c7      
 E  c8      
 L  c9      
 L  c10     
 L  c11     
 L  c12     
 L  c13     
 L  c14     
 L  c15     
 L  c16     
 L  c17     
 L  c18     
 L  c19     
 L  c20     
 L  c21     
 L  c22     
 L  c23     
 L  c24     
 L  c25     
 L  c26     
 G  c27     
 G  c28     
 G  c29     
 G  c30     
 G  c31     
 G  c32     
 G  c33     
 G  c34     
 G  c35     
 G  c36     
 G  c37     
 G  c38     
 G  c39     
 G  c40     
 G  c41     
 G  c42     
 G  c43     
 G  c44     
 G  c45     
 G  c46     
 G  c47     
 G  c48     
 G  c49     
 G  c50     
 G  c51     
 G  c52     
 G  c53     
 G  c54     
 G  c55     
 G  c56     
 G  c57     
 G  c58     
 G  c59     
 G  c60     
 G  c61     
 G  c62     
 G  c63     
 G  c64     
 G  c65     
 G  c66     
 G  c67     
 G  c68     
 G  c69     
 G  c70     
 G  c71     
 G  c72     
 G  c73     
 G  c74     
 G  c75     
 G  c76     
 G  c77     
 G  c78     
 G  c79     
 G  c80     
 G  c81     
 G  c82     
 G  c83     
 G  c84     
 G  c85     
 G  c86     
 G  c87     
 G  c88     
 G  c89     
 G  c90     
 G  c91     
 G  c92     
 G  c93     
 G  c94     
 G  c95     
 G  c96     
 G  c97     
 G  c98     
 G  c99     
 G  c100    
 G  c101    
 G  c102    
 G  c103    
 G  c104    
 G  c105    
 G  c106    
 G  c107    
 G  c108    
 G  c109    
 G  c110    
 G  c111    
 G  c112    
 G  c113    
 G  c114    
 G  c115    
 G  c116    
 G  c117    
 G  c118    
 G  c119    
 G  c120    
 G  c121    
 G  c122    
 G  c123    
 G  c124    
 G  c125    
 G  c126    
 G  c127    
 G  c128    
 G  c129    
 G  c130    
 G  c131    
 G  c132    
 G  c133    
 G  c134    
 G  c135    
 G  c136    
 G  c137    
 G  c138    
 G  c139    
 G  c140    
 G  c141    
 G  c142    
 G  c143    
 G  c144    
 G  c145    
 G  c146    
 G  c147    
 G  c148    
 G  c149    
 G  c150    
 G  c151    
 L  c152    
 G  c153    
 L  c154    
 G  c155    
 L  c156    
 G  c157    
 L  c158    
 G  c159    
 L  c160    
 G  c161    
 L  c162    
 G  c163    
 L  c164    
 G  c165    
 L  c166    
 G  c167    
 L  c168    
 G  c169    
 L  c170    
 G  c171    
 L  c172    
 G  c173    
 L  c174    
 G  c175    
 L  c176    
 G  c177    
 L  c178    
 G  c179    
 L  c180    
 G  c181    
 L  c182    
 G  c183    
 L  c184    
 G  c185    
 L  c186    
 G  OF_constraint
COLUMNS
    MARKER    'MARKER'                 'INTORG'
    B0(14)    c0        1
    B0(14)    c9        -1000000000
    B0(14)    c27       -17
    B0(14)    c28       -1000000017
    B0(14)    c29       -17
    B0(14)    c41       -1000000000
    B0(14)    c42       -1000000000
    B0(14)    c43       -1000000000
    B0(14)    c44       -1000000000
    B0(14)    c49       -1000000000
    B0(14)    c50       -1000000000
    B0(14)    c115      -11
    B0(14)    c151      17
    B0(14)    c152      17
    B1(18)    c0        1
    B1(18)    c10       -1000000000
    B1(18)    c27       -25
    B1(18)    c28       -25
    B1(18)    c29       -1000000025
    B1(18)    c45       -1000000000
    B1(18)    c46       -1000000000
    B1(18)    c47       -1000000000
    B1(18)    c48       -1000000000
    B1(18)    c51       -1000000000
    B1(18)    c52       -1000000000
    B1(18)    c53       -1000000000
    B1(18)    c54       -1000000000
    B1(18)    c55       -1000000000
    B1(18)    c56       -1000000000
    B1(18)    c117      -11
    B1(18)    c153      25
    B1(18)    c154      25
    B2(14)    c1        1
    B2(14)    c11       -1000000000
    B2(14)    c28       -1000000000
    B2(14)    c30       -40
    B2(14)    c31       -40
    B2(14)    c57       -1000000000
    B2(14)    c58       -1000000000
    B2(14)    c59       -1000000000
    B2(14)    c60       -1000000000
    B2(14)    c65       -1000000000
    B2(14)    c66       -1000000000
    B2(14)    c119      -11
    B2(14)    c155      40
    B2(14)    c156      40
    B3(18)    c1        1
    B3(18)    c12       -1000000000
    B3(18)    c29       -1000000000
    B3(18)    c30       -30
    B3(18)    c31       -1000000030
    B3(18)    c61       -1000000000
    B3(18)    c62       -1000000000
    B3(18)    c63       -1000000000
    B3(18)    c64       -1000000000
    B3(18)    c67       -1000000000
    B3(18)    c68       -1000000000
    B3(18)    c69       -1000000000
    B3(18)    c70       -1000000000
    B3(18)    c71       -1000000000
    B3(18)    c72       -1000000000
    B3(18)    c121      -11
    B3(18)    c157      30
    B3(18)    c158      30
    B4(16)    c2        1
    B4(16)    c13       -1000000000
    B4(16)    c31       -1000000000
    B4(16)    c75       -1000000000
    B4(16)    c76       -1000000000
    B4(16)    c77       -1000000000
    B4(16)    c78       -1000000000
    B4(16)    c81       -1000000000
    B4(16)    c82       -1000000000
    B4(16)    c83       -1000000000
    B4(16)    c84       -1000000000
    B4(16)    c87       -1000000000
    B4(16)    c88       -1000000000
    B4(16)    c123      -11
    B4(16)    c159      50
    B4(16)    c160      50
    B5(13)    c2        1
    B5(13)    c14       -1000000000
    B5(13)    c73       -1000000000
    B5(13)    c74       -1000000000
    B5(13)    c79       -1000000000
    B5(13)    c80       -1000000000
    B5(13)    c85       -1000000000
    B5(13)    c86       -1000000000
    B5(13)    c89       -1000000000
    B5(13)    c90       -1000000000
    B5(13)    c125      -11
    B5(13)    c161      60
    B5(13)    c162      60
    B6(13)    c3        1
    B6(13)    c15       -1000000000
    B6(13)    c32       -30
    B6(13)    c33       -1000000030
    B6(13)    c41       -1000000000
    B6(13)    c42       -1000000000
    B6(13)    c57       -1000000000
    B6(13)    c58       -1000000000
    B6(13)    c91       -1000000000
    B6(13)    c92       -1000000000
    B6(13)    c127      -8
    B6(13)    c163      30
    B6(13)    c164      30
    B7(13)    c3        1
    B7(13)    c16       -1000000000
    B7(13)    c32       -50
    B7(13)    c33       -50
    B7(13)    c73       -1000000000
    B7(13)    c74       -1000000000
    B7(13)    c93       -1000000000
    B7(13)    c94       -1000000000
    B7(13)    c95       -1000000000
    B7(13)    c96       -1000000000
    B7(13)    c129      -8
    B7(13)    c165      50
    B7(13)    c166      50
    B8(14)    c4        1
    B8(14)    c17       -1000000000
    B8(14)    c33       -1000000000
    B8(14)    c34       -50
    B8(14)    c35       -50
    B8(14)    c43       -1000000000
    B8(14)    c44       -1000000000
    B8(14)    c59       -1000000000
    B8(14)    c60       -1000000000
    B8(14)    c97       -1000000000
    B8(14)    c98       -1000000000
    B8(14)    c131      -8
    B8(14)    c167      50
    B8(14)    c168      50
    B9(19)    c4        1
    B9(19)    c18       -1000000000
    B9(19)    c34       -60
    B9(19)    c35       -1000000060
    B9(19)    c45       -1000000000
    B9(19)    c46       -1000000000
    B9(19)    c61       -1000000000
    B9(19)    c62       -1000000000
    B9(19)    c75       -1000000000
    B9(19)    c76       -1000000000
    B9(19)    c99       -1000000000
    B9(19)    c100      -1000000000
    B9(19)    c101      -1000000000
    B9(19)    c102      -1000000000
    B9(19)    c103      -1000000000
    B9(19)    c104      -1000000000
    B9(19)    c133      -8
    B9(19)    c169      60
    B9(19)    c170      60
    B10(18)   c5        1
    B10(18)   c19       -1000000000
    B10(18)   c35       -1000000000
    B10(18)   c47       -1000000000
    B10(18)   c48       -1000000000
    B10(18)   c63       -1000000000
    B10(18)   c64       -1000000000
    B10(18)   c77       -1000000000
    B10(18)   c78       -1000000000
    B10(18)   c105      -1000000000
    B10(18)   c106      -1000000000
    B10(18)   c107      -1000000000
    B10(18)   c108      -1000000000
    B10(18)   c111      -1000000000
    B10(18)   c112      -1000000000
    B10(18)   c135      -8
    B10(18)   c171      70
    B10(18)   c172      70
    B11(11)   c5        1
    B11(11)   c20       -1000000000
    B11(11)   c79       -1000000000
    B11(11)   c80       -1000000000
    B11(11)   c109      -1000000000
    B11(11)   c110      -1000000000
    B11(11)   c113      -1000000000
    B11(11)   c114      -1000000000
    B11(11)   c137      -8
    B11(11)   c173      60
    B11(11)   c174      60
    B12(14)   c6        1
    B12(14)   c21       -1000000000
    B12(14)   c36       -50
    B12(14)   c37       -50
    B12(14)   c49       -1000000000
    B12(14)   c50       -1000000000
    B12(14)   c65       -1000000000
    B12(14)   c66       -1000000000
    B12(14)   c91       -1000000000
    B12(14)   c92       -1000000000
    B12(14)   c97       -1000000000
    B12(14)   c98       -1000000000
    B12(14)   c175      50
    B12(14)   c176      50
    B13(16)   c6        1
    B13(16)   c22       -1000000000
    B13(16)   c36       -60
    B13(16)   c37       -1000000060
    B13(16)   c51       -1000000000
    B13(16)   c52       -1000000000
    B13(16)   c67       -1000000000
    B13(16)   c68       -1000000000
    B13(16)   c81       -1000000000
    B13(16)   c82       -1000000000
    B13(16)   c99       -1000000000
    B13(16)   c100      -1000000000
    B13(16)   c105      -1000000000
    B13(16)   c106      -1000000000
    B13(16)   c177      60
    B13(16)   c178      60
    B14(18)   c7        1
    B14(18)   c23       -1000000000
    B14(18)   c37       -1000000000
    B14(18)   c38       -70
    B14(18)   c39       -1000000070
    B14(18)   c40       -70
    B14(18)   c53       -1000000000
    B14(18)   c54       -1000000000
    B14(18)   c69       -1000000000
    B14(18)   c70       -1000000000
    B14(18)   c83       -1000000000
    B14(18)   c84       -1000000000
    B14(18)   c101      -1000000000
    B14(18)   c102      -1000000000
    B14(18)   c107      -1000000000
    B14(18)   c108      -1000000000
    B14(18)   c179      70
    B14(18)   c180      70
    B15(13)   c7        1
    B15(13)   c24       -1000000000
    B15(13)   c38       -80
    B15(13)   c39       -80
    B15(13)   c40       -1000000080
    B15(13)   c85       -1000000000
    B15(13)   c86       -1000000000
    B15(13)   c93       -1000000000
    B15(13)   c94       -1000000000
    B15(13)   c109      -1000000000
    B15(13)   c110      -1000000000
    B15(13)   c181      80
    B15(13)   c182      80
    B16(15)   c8        1
    B16(15)   c25       -1000000000
    B16(15)   c39       -1000000000
    B16(15)   c55       -1000000000
    B16(15)   c56       -1000000000
    B16(15)   c71       -1000000000
    B16(15)   c72       -1000000000
    B16(15)   c87       -1000000000
    B16(15)   c88       -1000000000
    B16(15)   c103      -1000000000
    B16(15)   c104      -1000000000
    B16(15)   c111      -1000000000
    B16(15)   c112      -1000000000
    B16(15)   c183      90
    B16(15)   c184      90
    B17(11)   c8        1
    B17(11)   c26       -1000000000
    B17(11)   c40       -1000000000
    B17(11)   c89       -1000000000
    B17(11)   c90       -1000000000
    B17(11)   c95       -1000000000
    B17(11)   c96       -1000000000
    B17(11)   c113      -1000000000
    B17(11)   c114      -1000000000
    B17(11)   c185      100
    B17(11)   c186      100
    B18(0)    OBJ       0
    B19(0)    OBJ       0
    B20(0)    OBJ       0
    B21(2)    c41       -1000000000
    B21(2)    c42       1000000000
    B22(4)    c43       -1000000000
    B22(4)    c44       1000000000
    B22(4)    c45       -1000000000
    B22(4)    c46       1000000000
    B23(2)    c47       -1000000000
    B23(2)    c48       1000000000
    B24(4)    c49       -1000000000
    B24(4)    c50       1000000000
    B24(4)    c51       -1000000000
    B24(4)    c52       1000000000
    B25(2)    c53       -1000000000
    B25(2)    c54       1000000000
    B26(2)    c55       -1000000000
    B26(2)    c56       1000000000
    B27(0)    OBJ       0
    B28(0)    OBJ       0
    B29(0)    OBJ       0
    B30(2)    c57       -1000000000
    B30(2)    c58       1000000000
    B31(4)    c59       -1000000000
    B31(4)    c60       1000000000
    B31(4)    c61       -1000000000
    B31(4)    c62       1000000000
    B32(2)    c63       -1000000000
    B32(2)    c64       1000000000
    B33(4)    c65       -1000000000
    B33(4)    c66       1000000000
    B33(4)    c67       -1000000000
    B33(4)    c68       1000000000
    B34(2)    c69       -1000000000
    B34(2)    c70       1000000000
    B35(2)    c71       -1000000000
    B35(2)    c72       1000000000
    B36(0)    OBJ       0
    B37(0)    OBJ       0
    B38(0)    OBJ       0
    B39(2)    c73       -1000000000
    B39(2)    c74       1000000000
    B40(2)    c75       -1000000000
    B40(2)    c76       1000000000
    B41(4)    c77       -1000000000
    B41(4)    c78       1000000000
    B41(4)    c79       -1000000000
    B41(4)    c80       1000000000
    B42(2)    c81       -1000000000
    B42(2)    c82       1000000000
    B43(4)    c83       -1000000000
    B43(4)    c84       1000000000
    B43(4)    c85       -1000000000
    B43(4)    c86       1000000000
    B44(4)    c87       -1000000000
    B44(4)    c88       1000000000
    B44(4)    c89       -1000000000
    B44(4)    c90       1000000000
    B45(0)    OBJ       0
    B46(0)    OBJ       0
    B47(0)    OBJ       0
    B48(0)    OBJ       0
    B49(0)    OBJ       0
    B50(0)    OBJ       0
    B51(2)    c91       -1000000000
    B51(2)    c92       1000000000
    B52(2)    c93       -1000000000
    B52(2)    c94       1000000000
    B53(2)    c95       -1000000000
    B53(2)    c96       1000000000
    B54(0)    OBJ       0
    B55(0)    OBJ       0
    B56(0)    OBJ       0
    B57(0)    OBJ       0
    B58(0)    OBJ       0
    B59(0)    OBJ       0
    B60(4)    c97       -1000000000
    B60(4)    c98       1000000000
    B60(4)    c99       -1000000000
    B60(4)    c100      1000000000
    B61(2)    c101      -1000000000
    B61(2)    c102      1000000000
    B62(2)    c103      -1000000000
    B62(2)    c104      1000000000
    B63(0)    OBJ       0
    B64(0)    OBJ       0
    B65(0)    OBJ       0
    B66(0)    OBJ       0
    B67(0)    OBJ       0
    B68(0)    OBJ       0
    B69(2)    c105      -1000000000
    B69(2)    c106      1000000000
    B70(4)    c107      -1000000000
    B70(4)    c108      1000000000
    B70(4)    c109      -1000000000
    B70(4)    c110      1000000000
    B71(4)    c111      -1000000000
    B71(4)    c112      1000000000
    B71(4)    c113      -1000000000
    B71(4)    c114      1000000000
    B72(0)    OBJ       0
    B73(0)    OBJ       0
    B74(0)    OBJ       0
    B75(0)    OBJ       0
    B76(0)    OBJ       0
    B77(0)    OBJ       0
    B78(0)    OBJ       0
    B79(0)    OBJ       0
    B80(0)    OBJ       0
    B81(0)    OBJ       0
    B82(0)    OBJ       0
    B83(0)    OBJ       0
    B84(0)    OBJ       0
    B85(0)    OBJ       0
    B86(0)    OBJ       0
    B87(0)    OBJ       0
    B88(0)    OBJ       0
    B89(0)    OBJ       0
    B90(0)    OBJ       0
    B91(0)    OBJ       0
    B92(0)    OBJ       0
    B93(0)    OBJ       0
    B94(0)    OBJ       0
    B95(0)    OBJ       0
    B96(0)    OBJ       0
    B97(0)    OBJ       0
    B98(0)    OBJ       0
    I99(14)   c9        1
    I99(14)   c27       -1
    I99(14)   c28       -1
    I99(14)   c29       -1
    I99(14)   c41       1
    I99(14)   c42       -1
    I99(14)   c43       1
    I99(14)   c44       -1
    I99(14)   c49       1
    I99(14)   c50       -1
    I99(14)   c115      1
    I99(14)   c116      1
    I99(14)   c151      1
    I99(14)   c152      1
    I100(18)  c10       1
    I100(18)  c27       -1
    I100(18)  c28       -1
    I100(18)  c29       -1
    I100(18)  c45       1
    I100(18)  c46       -1
    I100(18)  c47       1
    I100(18)  c48       -1
    I100(18)  c51       1
    I100(18)  c52       -1
    I100(18)  c53       1
    I100(18)  c54       -1
    I100(18)  c55       1
    I100(18)  c56       -1
    I100(18)  c117      1
    I100(18)  c118      1
    I100(18)  c153      1
    I100(18)  c154      1
    I101(16)  c11       1
    I101(16)  c27       1
    I101(16)  c28       1
    I101(16)  c29       1
    I101(16)  c30       -1
    I101(16)  c31       -1
    I101(16)  c57       1
    I101(16)  c58       -1
    I101(16)  c59       1
    I101(16)  c60       -1
    I101(16)  c65       1
    I101(16)  c66       -1
    I101(16)  c119      1
    I101(16)  c120      1
    I101(16)  c155      1
    I101(16)  c156      1
    I102(20)  c12       1
    I102(20)  c27       1
    I102(20)  c28       1
    I102(20)  c29       1
    I102(20)  c30       -1
    I102(20)  c31       -1
    I102(20)  c61       1
    I102(20)  c62       -1
    I102(20)  c63       1
    I102(20)  c64       -1
    I102(20)  c67       1
    I102(20)  c68       -1
    I102(20)  c69       1
    I102(20)  c70       -1
    I102(20)  c71       1
    I102(20)  c72       -1
    I102(20)  c121      1
    I102(20)  c122      1
    I102(20)  c157      1
    I102(20)  c158      1
    I103(18)  c13       1
    I103(18)  c30       1
    I103(18)  c31       1
    I103(18)  c75       1
    I103(18)  c76       -1
    I103(18)  c77       1
    I103(18)  c78       -1
    I103(18)  c81       1
    I103(18)  c82       -1
    I103(18)  c83       1
    I103(18)  c84       -1
    I103(18)  c87       1
    I103(18)  c88       -1
    I103(18)  c123      1
    I103(18)  c124      1
    I103(18)  c159      1
    I103(18)  c160      1
    I104(16)  c14       1
    I104(16)  c30       1
    I104(16)  c31       1
    I104(16)  c73       1
    I104(16)  c74       -1
    I104(16)  c79       1
    I104(16)  c80       -1
    I104(16)  c85       1
    I104(16)  c86       -1
    I104(16)  c89       1
    I104(16)  c90       -1
    I104(16)  c125      1
    I104(16)  c126      1
    I104(16)  c161      1
    I104(16)  c162      1
    I105(13)  c15       1
    I105(13)  c32       -1
    I105(13)  c33       -1
    I105(13)  c41       -1
    I105(13)  c42       1
    I105(13)  c57       -1
    I105(13)  c58       1
    I105(13)  c91       1
    I105(13)  c92       -1
    I105(13)  c127      1
    I105(13)  c128      1
    I105(13)  c163      1
    I105(13)  c164      1
    I106(13)  c16       1
    I106(13)  c32       -1
    I106(13)  c33       -1
    I106(13)  c73       -1
    I106(13)  c74       1
    I106(13)  c93       1
    I106(13)  c94       -1
    I106(13)  c95       1
    I106(13)  c96       -1
    I106(13)  c129      1
    I106(13)  c130      1
    I106(13)  c165      1
    I106(13)  c166      1
    I107(15)  c17       1
    I107(15)  c32       1
    I107(15)  c33       1
    I107(15)  c34       -1
    I107(15)  c35       -1
    I107(15)  c43       -1
    I107(15)  c44       1
    I107(15)  c59       -1
    I107(15)  c60       1
    I107(15)  c97       1
    I107(15)  c98       -1
    I107(15)  c131      1
    I107(15)  c132      1
    I107(15)  c167      1
    I107(15)  c168      1
    I108(21)  c18       1
    I108(21)  c32       1
    I108(21)  c33       1
    I108(21)  c34       -1
    I108(21)  c35       -1
    I108(21)  c45       -1
    I108(21)  c46       1
    I108(21)  c61       -1
    I108(21)  c62       1
    I108(21)  c75       -1
    I108(21)  c76       1
    I108(21)  c99       1
    I108(21)  c100      -1
    I108(21)  c101      1
    I108(21)  c102      -1
    I108(21)  c103      1
    I108(21)  c104      -1
    I108(21)  c133      1
    I108(21)  c134      1
    I108(21)  c169      1
    I108(21)  c170      1
    I109(20)  c19       1
    I109(20)  c34       1
    I109(20)  c35       1
    I109(20)  c47       -1
    I109(20)  c48       1
    I109(20)  c63       -1
    I109(20)  c64       1
    I109(20)  c77       -1
    I109(20)  c78       1
    I109(20)  c105      1
    I109(20)  c106      -1
    I109(20)  c107      1
    I109(20)  c108      -1
    I109(20)  c111      1
    I109(20)  c112      -1
    I109(20)  c135      1
    I109(20)  c136      1
    I109(20)  c171      1
    I109(20)  c172      1
    I110(14)  c20       1
    I110(14)  c34       1
    I110(14)  c35       1
    I110(14)  c79       -1
    I110(14)  c80       1
    I110(14)  c109      1
    I110(14)  c110      -1
    I110(14)  c113      1
    I110(14)  c114      -1
    I110(14)  c137      1
    I110(14)  c138      1
    I110(14)  c173      1
    I110(14)  c174      1
    I111(15)  c21       1
    I111(15)  c36       -1
    I111(15)  c37       -1
    I111(15)  c49       -1
    I111(15)  c50       1
    I111(15)  c65       -1
    I111(15)  c66       1
    I111(15)  c91       -1
    I111(15)  c92       1
    I111(15)  c97       -1
    I111(15)  c98       1
    I111(15)  c139      1
    I111(15)  c140      1
    I111(15)  c175      1
    I111(15)  c176      1
    I112(17)  c22       1
    I112(17)  c36       -1
    I112(17)  c37       -1
    I112(17)  c51       -1
    I112(17)  c52       1
    I112(17)  c67       -1
    I112(17)  c68       1
    I112(17)  c81       -1
    I112(17)  c82       1
    I112(17)  c99       -1
    I112(17)  c100      1
    I112(17)  c105      -1
    I112(17)  c106      1
    I112(17)  c141      1
    I112(17)  c142      1
    I112(17)  c177      1
    I112(17)  c178      1
    I113(20)  c23       1
    I113(20)  c36       1
    I113(20)  c37       1
    I113(20)  c38       -1
    I113(20)  c39       -1
    I113(20)  c40       -1
    I113(20)  c53       -1
    I113(20)  c54       1
    I113(20)  c69       -1
    I113(20)  c70       1
    I113(20)  c83       -1
    I113(20)  c84       1
    I113(20)  c101      -1
    I113(20)  c102      1
    I113(20)  c107      -1
    I113(20)  c108      1
    I113(20)  c143      1
    I113(20)  c144      1
    I113(20)  c179      1
    I113(20)  c180      1
    I114(16)  c24       1
    I114(16)  c36       1
    I114(16)  c37       1
    I114(16)  c38       -1
    I114(16)  c39       -1
    I114(16)  c40       -1
    I114(16)  c85       -1
    I114(16)  c86       1
    I114(16)  c93       -1
    I114(16)  c94       1
    I114(16)  c109      -1
    I114(16)  c110      1
    I114(16)  c145      1
    I114(16)  c146      1
    I114(16)  c181      1
    I114(16)  c182      1
    I115(19)  c25       1
    I115(19)  c38       1
    I115(19)  c39       1
    I115(19)  c40       1
    I115(19)  c55       -1
    I115(19)  c56       1
    I115(19)  c71       -1
    I115(19)  c72       1
    I115(19)  c87       -1
    I115(19)  c88       1
    I115(19)  c103      -1
    I115(19)  c104      1
    I115(19)  c111      -1
    I115(19)  c112      1
    I115(19)  c147      1
    I115(19)  c148      1
    I115(19)  c183      1
    I115(19)  c184      1
    I116(15)  c26       1
    I116(15)  c38       1
    I116(15)  c39       1
    I116(15)  c40       1
    I116(15)  c89       -1
    I116(15)  c90       1
    I116(15)  c95       -1
    I116(15)  c96       1
    I116(15)  c113      -1
    I116(15)  c114      1
    I116(15)  c149      1
    I116(15)  c150      1
    I116(15)  c185      1
    I116(15)  c186      1
    I117(1)   OBJ       1
    I117(1)   OF_constraint  1
    B118(2)   c151      -1000000000
    B118(2)   c152      -1000000000
    B119(2)   c153      -1000000000
    B119(2)   c154      -1000000000
    B120(2)   c155      -1000000000
    B120(2)   c156      -1000000000
    B121(2)   c157      -1000000000
    B121(2)   c158      -1000000000
    B122(4)   c159      -1000000000
    B122(4)   c160      -1000000000
    B122(4)   OF_constraint  -4
    B123(4)   c161      -1000000000
    B123(4)   c162      -1000000000
    B123(4)   OF_constraint  -14
    B124(2)   c163      -1000000000
    B124(2)   c164      -1000000000
    B125(2)   c165      -1000000000
    B125(2)   c166      -1000000000
    B126(2)   c167      -1000000000
    B126(2)   c168      -1000000000
    B127(2)   c169      -1000000000
    B127(2)   c170      -1000000000
    B128(4)   c171      -1000000000
    B128(4)   c172      -1000000000
    B128(4)   OF_constraint  -29
    B129(4)   c173      -1000000000
    B129(4)   c174      -1000000000
    B129(4)   OF_constraint  -19
    B130(2)   c175      -1000000000
    B130(2)   c176      -1000000000
    B131(2)   c177      -1000000000
    B131(2)   c178      -1000000000
    B132(2)   c179      -1000000000
    B132(2)   c180      -1000000000
    B133(2)   c181      -1000000000
    B133(2)   c182      -1000000000
    B134(4)   c183      -1000000000
    B134(4)   c184      -1000000000
    B134(4)   OF_constraint  -67
    B135(4)   c185      -1000000000
    B135(4)   c186      -1000000000
    B135(4)   OF_constraint  -77
    MARKER    'MARKER'                 'INTEND'
RHS
    RHS1      c0        1
    RHS1      c1        1
    RHS1      c2        1
    RHS1      c3        1
    RHS1      c4        1
    RHS1      c5        1
    RHS1      c6        1
    RHS1      c7        1
    RHS1      c8        1
    RHS1      c28       -1999999993
    RHS1      c29       -1999999995
    RHS1      c31       -1999999994
    RHS1      c33       -1999999993
    RHS1      c35       -1999999995
    RHS1      c37       -1999999993
    RHS1      c39       -1999999994
    RHS1      c40       -1999999993
    RHS1      c41       -2999999964
    RHS1      c42       -1999999978
    RHS1      c43       -2999999945
    RHS1      c44       -1999999979
    RHS1      c45       -2999999934
    RHS1      c46       -1999999969
    RHS1      c47       -2999999924
    RHS1      c48       -1999999969
    RHS1      c49       -2999999945
    RHS1      c50       -1999999978
    RHS1      c51       -2999999933
    RHS1      c52       -1999999969
    RHS1      c53       -2999999925
    RHS1      c54       -1999999970
    RHS1      c55       -2999999903
    RHS1      c56       -1999999968
    RHS1      c57       -2999999964
    RHS1      c58       -1999999955
    RHS1      c59       -2999999944
    RHS1      c60       -1999999954
    RHS1      c61       -2999999934
    RHS1      c62       -1999999965
    RHS1      c63       -2999999926
    RHS1      c64       -1999999966
    RHS1      c65       -2999999944
    RHS1      c66       -1999999954
    RHS1      c67       -2999999934
    RHS1      c68       -1999999963
    RHS1      c69       -2999999925
    RHS1      c70       -1999999964
    RHS1      c71       -2999999905
    RHS1      c72       -1999999966
    RHS1      c73       -2999999945
    RHS1      c74       -1999999933
    RHS1      c75       -2999999934
    RHS1      c76       -1999999944
    RHS1      c77       -2999999924
    RHS1      c78       -1999999944
    RHS1      c79       -2999999934
    RHS1      c80       -1999999935
    RHS1      c81       -2999999936
    RHS1      c82       -1999999943
    RHS1      c83       -2999999924
    RHS1      c84       -1999999945
    RHS1      c85       -2999999913
    RHS1      c86       -1999999934
    RHS1      c87       -2999999905
    RHS1      c88       -1999999943
    RHS1      c89       -2999999895
    RHS1      c90       -1999999936
    RHS1      c91       -2999999945
    RHS1      c92       -1999999966
    RHS1      c93       -2999999916
    RHS1      c94       -1999999946
    RHS1      c95       -2999999894
    RHS1      c96       -1999999944
    RHS1      c97       -2999999945
    RHS1      c98       -1999999946
    RHS1      c99       -2999999935
    RHS1      c100      -1999999934
    RHS1      c101      -2999999924
    RHS1      c102      -1999999935
    RHS1      c103      -2999999903
    RHS1      c104      -1999999934
    RHS1      c105      -2999999935
    RHS1      c106      -1999999924
    RHS1      c107      -2999999925
    RHS1      c108      -1999999926
    RHS1      c109      -2999999914
    RHS1      c110      -1999999935
    RHS1      c111      -2999999905
    RHS1      c112      -1999999924
    RHS1      c113      -2999999894
    RHS1      c114      -1999999935
    RHS1      c151      -999999954
    RHS1      c152      46
    RHS1      c153      -999999954
    RHS1      c154      46
    RHS1      c155      -999999954
    RHS1      c156      46
    RHS1      c157      -999999954
    RHS1      c158      46
    RHS1      c159      -999999954
    RHS1      c160      46
    RHS1      c161      -999999954
    RHS1      c162      46
    RHS1      c163      -999999959
    RHS1      c164      41
    RHS1      c165      -999999959
    RHS1      c166      41
    RHS1      c167      -999999959
    RHS1      c168      41
    RHS1      c169      -999999959
    RHS1      c170      41
    RHS1      c171      -999999959
    RHS1      c172      41
    RHS1      c173      -999999959
    RHS1      c174      41
    RHS1      c175      -999999977
    RHS1      c176      23
    RHS1      c177      -999999977
    RHS1      c178      23
    RHS1      c179      -999999977
    RHS1      c180      23
    RHS1      c181      -999999977
    RHS1      c182      23
    RHS1      c183      -999999977
    RHS1      c184      23
    RHS1      c185      -999999977
    RHS1      c186      23
BOUNDS
 BV BND1      B0(14)  
 BV BND1      B1(18)  
 BV BND1      B2(14)  
 BV BND1      B3(18)  
 BV BND1      B4(16)  
 BV BND1      B5(13)  
 BV BND1      B6(13)  
 BV BND1      B7(13)  
 BV BND1      B8(14)  
 BV BND1      B9(19)  
 BV BND1      B10(18) 
 BV BND1      B11(11) 
 BV BND1      B12(14) 
 BV BND1      B13(16) 
 BV BND1      B14(18) 
 BV BND1      B15(13) 
 BV BND1      B16(15) 
 BV BND1      B17(11) 
 BV BND1      B18(0)  
 BV BND1      B19(0)  
 BV BND1      B20(0)  
 BV BND1      B21(2)  
 BV BND1      B22(4)  
 BV BND1      B23(2)  
 BV BND1      B24(4)  
 BV BND1      B25(2)  
 BV BND1      B26(2)  
 BV BND1      B27(0)  
 BV BND1      B28(0)  
 BV BND1      B29(0)  
 BV BND1      B30(2)  
 BV BND1      B31(4)  
 BV BND1      B32(2)  
 BV BND1      B33(4)  
 BV BND1      B34(2)  
 BV BND1      B35(2)  
 BV BND1      B36(0)  
 BV BND1      B37(0)  
 BV BND1      B38(0)  
 BV BND1      B39(2)  
 BV BND1      B40(2)  
 BV BND1      B41(4)  
 BV BND1      B42(2)  
 BV BND1      B43(4)  
 BV BND1      B44(4)  
 BV BND1      B45(0)  
 BV BND1      B46(0)  
 BV BND1      B47(0)  
 BV BND1      B48(0)  
 BV BND1      B49(0)  
 BV BND1      B50(0)  
 BV BND1      B51(2)  
 BV BND1      B52(2)  
 BV BND1      B53(2)  
 BV BND1      B54(0)  
 BV BND1      B55(0)  
 BV BND1      B56(0)  
 BV BND1      B57(0)  
 BV BND1      B58(0)  
 BV BND1      B59(0)  
 BV BND1      B60(4)  
 BV BND1      B61(2)  
 BV BND1      B62(2)  
 BV BND1      B63(0)  
 BV BND1      B64(0)  
 BV BND1      B65(0)  
 BV BND1      B66(0)  
 BV BND1      B67(0)  
 BV BND1      B68(0)  
 BV BND1      B69(2)  
 BV BND1      B70(4)  
 BV BND1      B71(4)  
 BV BND1      B72(0)  
 BV BND1      B73(0)  
 BV BND1      B74(0)  
 BV BND1      B75(0)  
 BV BND1      B76(0)  
 BV BND1      B77(0)  
 BV BND1      B78(0)  
 BV BND1      B79(0)  
 BV BND1      B80(0)  
 BV BND1      B81(0)  
 BV BND1      B82(0)  
 BV BND1      B83(0)  
 BV BND1      B84(0)  
 BV BND1      B85(0)  
 BV BND1      B86(0)  
 BV BND1      B87(0)  
 BV BND1      B88(0)  
 BV BND1      B89(0)  
 BV BND1      B90(0)  
 BV BND1      B91(0)  
 BV BND1      B92(0)  
 BV BND1      B93(0)  
 BV BND1      B94(0)  
 BV BND1      B95(0)  
 BV BND1      B96(0)  
 BV BND1      B97(0)  
 BV BND1      B98(0)  
 LI BND1      I99(14)   0
 LI BND1      I100(18)  0
 LI BND1      I101(16)  0
 LI BND1      I102(20)  0
 LI BND1      I103(18)  0
 LI BND1      I104(16)  0
 LI BND1      I105(13)  0
 LI BND1      I106(13)  0
 LI BND1      I107(15)  0
 LI BND1      I108(21)  0
 LI BND1      I109(20)  0
 LI BND1      I110(14)  0
 LI BND1      I111(15)  0
 LI BND1      I112(17)  0
 LI BND1      I113(20)  0
 LI BND1      I114(16)  0
 LI BND1      I115(19)  0
 LI BND1      I116(15)  0
 LI BND1      I117(1)   0
 BV BND1      B118(2) 
 BV BND1      B119(2) 
 BV BND1      B120(2) 
 BV BND1      B121(2) 
 BV BND1      B122(4) 
 BV BND1      B123(4) 
 BV BND1      B124(2) 
 BV BND1      B125(2) 
 BV BND1      B126(2) 
 BV BND1      B127(2) 
 BV BND1      B128(4) 
 BV BND1      B129(4) 
 BV BND1      B130(2) 
 BV BND1      B131(2) 
 BV BND1      B132(2) 
 BV BND1      B133(2) 
 BV BND1      B134(4) 
 BV BND1      B135(4) 
QCMATRIX   OF_constraint
    I103(18)  B122(4)   -0.5
    B122(4)   I103(18)  -0.5
    I104(16)  B123(4)   -0.5
    B123(4)   I104(16)  -0.5
    I109(20)  B128(4)   -0.5
    B128(4)   I109(20)  -0.5
    I110(14)  B129(4)   -0.5
    B129(4)   I110(14)  -0.5
    I115(19)  B134(4)   -0.5
    B134(4)   I115(19)  -0.5
    I116(15)  B135(4)   -0.5
    B135(4)   I116(15)  -0.5
ENDATA
